6 40 4 10
10 10 8 6 9 12 3 1 10 19 8 10 16 1 19 14 15 1 15 6 6 12 13 2 4 11 8 9 4 10 11 13 10 16 12 12 15 14 13 3 
1.55 5.9 2.47 12.2 6.03 0.07 3.2 14.09 2.14 7.89 8.42 12.03 8.04 3.84 4.74 13.76 2.6 8.56 4.64 0.78 7.01 3.83 10.38 7.48 3.39 12.68 7.77 13.66 14.03 12.58 5.5 0.18 9.27 5.31 13.96 12.98 9.7 11.63 4.1 11.33 
8.46 8.64 4.2 9.15 6.3 12.94 2.49 3.83 7.11 9.94 13.93 13.18 7.17 12.22 9.83 9.83 4.96 4.94 2.9 14.58 15.9 8.19 14.13 15.89 14.18 13.21 12.34 0.79 5.23 8.36 10.14 12.94 4.36 12.99 4.88 4.69 7.47 12.19 13.03 9.73 
13.51 6.91 2.93 12.85 7.99 11.3 5.5 3.48 13.1 5.51 15.04 10.49 9.3 4.12 12.6 8.99 7.32 0.02 1.28 10.19 7.16 4.38 12.2 8.03 7.22 13.07 10.68 5.68 14.52 4.48 3.9 9.67 14.24 2.21 0.31 9.83 3.73 6.19 12.51 14.61 
4.47 3.58 2.72 12.38 9.53 14.55 13.65 11.08 4.99 0.26 6.47 6.77 3.97 0.95 7.21 2.76 2.07 9.73 1.03 10.1 1.69 12.71 14.28 0.11 0.5 12.04 14.68 8.3 14.75 13.14 12.71 11.03 14.67 0.39 8.2 4.97 5.92 13.11 13.9 4.4 
8 8 8 8 8 8 8 8 8 8 8 8 8 8 8 8 8 8 8 8 8 8 8 8 8 8 8 8 8 8 8 8 8 8 8 8 8 8 8 8 
11.93 9.33 3.05 11.04 10.3 10.83 13.88 13.07 0.76 2 9.71 7.76 6.71 7.02 12.94 5.42 14.24 5.57 4.05 6.35 13.25 13.91 8.39 1.35 9.02 5.55 13.47 8.64 9.26 1.66 5.97 6.52 2.87 10.42 1.58 5.5 8.01 5.68 8.98 3.42 
1 1 1 1 1 1 1 1 1 1 1 1 1 1 1 1 1 1 1 1 1 1 1 1 1 1 1 1 1 1 1 1 1 1 1 1 1 1 1 1 
1 1 1 1 1 1 1 1 1 1 1 1 1 1 1 1 1 1 1 1 1 1 1 1 1 1 1 1 1 1 1 1 1 1 1 1 1 1 1 1 
1 1 1 1 1 1 1 1 1 1 1 1 1 1 1 1 1 1 1 1 1 1 1 1 1 1 1 1 1 1 1 1 1 1 1 1 1 1 1 1 
1 1 1 1 1 1 1 1 1 1 1 1 1 1 1 1 1 1 1 1 1 1 1 1 1 1 1 1 1 1 1 1 1 1 1 1 1 1 1 1 
1 1 1 1 1 1 1 1 1 1 1 1 1 1 1 1 1 1 1 1 1 1 1 1 1 1 1 1 1 1 1 1 1 1 1 1 1 1 1 1 
1 1 1 1 1 1 1 1 1 1 1 1 1 1 1 1 1 1 1 1 1 1 1 1 1 1 1 1 1 1 1 1 1 1 1 1 1 1 1 1 
0.01 0.01 0.01 0.01 0.01 0.01 0.01 0.01 0.01 0.01 0.01 0.01 0.01 0.01 0.01 0.01 0.01 0.01 0.01 0.01 0.01 0.01 0.01 0.01 0.01 0.01 0.01 0.01 0.01 0.01 0.01 0.01 0.01 0.01 0.01 0.01 0.01 0.01 0.01 0.01 
0.02 0.02 0.02 0.02 0.02 0.02 0.02 0.02 0.02 0.02 0.02 0.02 0.02 0.02 0.02 0.02 0.02 0.02 0.02 0.02 0.02 0.02 0.02 0.02 0.02 0.02 0.02 0.02 0.02 0.02 0.02 0.02 0.02 0.02 0.02 0.02 0.02 0.02 0.02 0.02 
0.03 0.03 0.03 0.03 0.03 0.03 0.03 0.03 0.03 0.03 0.03 0.03 0.03 0.03 0.03 0.03 0.03 0.03 0.03 0.03 0.03 0.03 0.03 0.03 0.03 0.03 0.03 0.03 0.03 0.03 0.03 0.03 0.03 0.03 0.03 0.03 0.03 0.03 0.03 0.03 
0.04 0.04 0.04 0.04 0.04 0.04 0.04 0.04 0.04 0.04 0.04 0.04 0.04 0.04 0.04 0.04 0.04 0.04 0.04 0.04 0.04 0.04 0.04 0.04 0.04 0.04 0.04 0.04 0.04 0.04 0.04 0.04 0.04 0.04 0.04 0.04 0.04 0.04 0.04 0.04 
0.05 0.05 0.05 0.05 0.05 0.05 0.05 0.05 0.05 0.05 0.05 0.05 0.05 0.05 0.05 0.05 0.05 0.05 0.05 0.05 0.05 0.05 0.05 0.05 0.05 0.05 0.05 0.05 0.05 0.05 0.05 0.05 0.05 0.05 0.05 0.05 0.05 0.05 0.05 0.05 
1 1 1 1 1 1 1 1 1 1 1 1 1 1 1 1 1 1 1 1 1 1 1 1 1 1 1 1 1 1 1 1 1 1 1 1 1 1 1 1 
